GLPSOL: GLPK LP/MIP Solver, v4.65
Parameter(s) specified in the command line:
 --model solver_drone.mod --data solver_drone_data_40.dat --output solver_drone_solution_40_10.log
 --log solver_drone_cmd_output_40_10.log --tmlim 70
Reading model section from solver_drone.mod...
41 lines were read
Reading data section from solver_drone_data_40.dat...
117 lines were read
Generating f...
Generating package_deliverd_once...
Generating package_well_delivered...
Generating time_spent_flying...
Generating autonomy_not_exceeded...
Generating check_time_max...
Model has been successfully generated
GLPK Integer Optimizer, v4.65
26801 rows, 26661 columns, 80631 non-zeros
26661 integer variables, 26650 of which are binary
Preprocessing...
150 rows, 26661 columns, 53980 non-zeros
26661 integer variables, 26650 of which are binary
Scaling...
 A: min|aij| =  1.000e+00  max|aij| =  2.856e+03  ratio =  2.856e+03
GM: min|aij| =  4.785e-01  max|aij| =  2.090e+00  ratio =  4.367e+00
EQ: min|aij| =  2.290e-01  max|aij| =  1.000e+00  ratio =  4.367e+00
2N: min|aij| =  1.250e-01  max|aij| =  1.199e+00  ratio =  9.594e+00
Constructing initial basis...
Size of triangular part is 150
Solving LP relaxation...
GLPK Simplex Optimizer, v4.65
150 rows, 26661 columns, 53980 non-zeros
      0: obj =   0.000000000e+00 inf =   2.390e+03 (1)
    234: obj =   7.648000000e+03 inf =   1.421e-14 (0) 2
*   241: obj =   7.648000000e+03 inf =   1.421e-14 (0)
OPTIMAL LP SOLUTION FOUND
Integer optimization begins...
Long-step dual simplex will be used
+   241: mip =     not found yet >=              -inf        (1; 0)
+   817: mip =     not found yet >=   7.648000000e+03        (186; 0)
+   909: >>>>>   8.624000000e+03 >=   7.648000000e+03  11.3% (220; 0)
+  2420: >>>>>   8.616000000e+03 >=   7.648000000e+03  11.2% (302; 24)
+  4462: >>>>>   8.560000000e+03 >=   7.648000000e+03  10.7% (399; 71)
+  5525: >>>>>   8.192000000e+03 >=   7.648000000e+03   6.6% (514; 106)
+  8682: >>>>>   7.936000000e+03 >=   7.648000000e+03   3.6% (469; 345)
+ 10006: >>>>>   7.904000000e+03 >=   7.648000000e+03   3.2% (433; 493)
+ 12011: >>>>>   7.832000000e+03 >=   7.648000000e+03   2.3% (502; 542)
+ 13041: >>>>>   7.792000000e+03 >=   7.648000000e+03   1.8% (481; 707)
+ 13998: >>>>>   7.768000000e+03 >=   7.648000000e+03   1.5% (442; 926)
+ 16029: mip =   7.768000000e+03 >=   7.648000000e+03   1.5% (617; 992)
+ 18137: mip =   7.768000000e+03 >=   7.648000000e+03   1.5% (837; 997)
+ 19986: >>>>>   7.744000000e+03 >=   7.648000000e+03   1.2% (1030; 1001)
+ 21870: mip =   7.744000000e+03 >=   7.648000000e+03   1.2% (1148; 1140)
+ 23404: >>>>>   7.728000000e+03 >=   7.648000000e+03   1.0% (1268; 1143)
+ 25157: mip =   7.728000000e+03 >=   7.648000000e+03   1.0% (1394; 1283)
+ 26434: mip =   7.728000000e+03 >=   7.648000000e+03   1.0% (1587; 1289)
Time used: 60.0 secs.  Memory used: 56.2 Mb.
+ 28001: mip =   7.728000000e+03 >=   7.648000000e+03   1.0% (1794; 1296)
+ 29726: mip =   7.728000000e+03 >=   7.648000000e+03   1.0% (2009; 1305)
+ 30803: mip =   7.728000000e+03 >=   7.648000000e+03   1.0% (2127; 1310)
TIME LIMIT EXCEEDED; SEARCH TERMINATED
Time used:   70.2 secs
Memory used: 59.8 Mb (62753182 bytes)
The package 1 is delivered by the drone 4 to the house 1
The package 2 is delivered by the drone 4 to the house 1
The package 3 is delivered by the drone 5 to the house 2
The package 4 is delivered by the drone 2 to the house 2
The package 5 is delivered by the drone 1 to the house 4
The package 6 is delivered by the drone 7 to the house 4
The package 7 is delivered by the drone 8 to the house 4
The package 8 is delivered by the drone 9 to the house 7
The package 9 is delivered by the drone 10 to the house 7
The package 10 is delivered by the drone 9 to the house 8
The package 11 is delivered by the drone 9 to the house 8
The package 12 is delivered by the drone 7 to the house 8
The package 13 is delivered by the drone 3 to the house 9
The package 14 is delivered by the drone 10 to the house 9
The package 15 is delivered by the drone 5 to the house 10
The package 16 is delivered by the drone 2 to the house 10
The package 17 is delivered by the drone 7 to the house 10
The package 18 is delivered by the drone 9 to the house 12
The package 19 is delivered by the drone 6 to the house 12
The package 20 is delivered by the drone 3 to the house 12
The package 21 is delivered by the drone 3 to the house 13
The package 22 is delivered by the drone 2 to the house 13
The package 23 is delivered by the drone 4 to the house 13
The package 24 is delivered by the drone 1 to the house 15
The package 25 is delivered by the drone 1 to the house 16
The package 26 is delivered by the drone 7 to the house 16
The package 27 is delivered by the drone 8 to the house 17
The package 28 is delivered by the drone 10 to the house 18
The package 29 is delivered by the drone 5 to the house 19
The package 30 is delivered by the drone 4 to the house 19
The package 31 is delivered by the drone 2 to the house 19
The package 32 is delivered by the drone 5 to the house 20
The package 33 is delivered by the drone 7 to the house 21
The package 34 is delivered by the drone 10 to the house 22
The package 35 is delivered by the drone 6 to the house 23
The package 36 is delivered by the drone 2 to the house 23
The package 37 is delivered by the drone 4 to the house 23
The package 38 is delivered by the drone 1 to the house 24
The package 39 is delivered by the drone 10 to the house 24
The package 40 is delivered by the drone 8 to the house 24
The package 41 is delivered by the drone 7 to the house 27
The package 42 is delivered by the drone 1 to the house 27
The package 43 is delivered by the drone 7 to the house 28
The package 44 is delivered by the drone 8 to the house 28
The package 45 is delivered by the drone 6 to the house 28
The package 46 is delivered by the drone 8 to the house 29
The package 47 is delivered by the drone 6 to the house 29
The package 48 is delivered by the drone 10 to the house 29
The package 49 is delivered by the drone 1 to the house 30
The package 50 is delivered by the drone 6 to the house 30
The package 51 is delivered by the drone 3 to the house 32
The package 52 is delivered by the drone 6 to the house 32
The package 53 is delivered by the drone 10 to the house 32
The package 54 is delivered by the drone 5 to the house 33
The package 55 is delivered by the drone 4 to the house 33
The package 56 is delivered by the drone 8 to the house 33
The package 57 is delivered by the drone 3 to the house 34
The package 58 is delivered by the drone 2 to the house 34
The package 59 is delivered by the drone 9 to the house 35
The package 60 is delivered by the drone 9 to the house 35
The package 61 is delivered by the drone 4 to the house 37
The package 62 is delivered by the drone 2 to the house 37
The package 63 is delivered by the drone 1 to the house 38
The package 64 is delivered by the drone 5 to the house 38
The package 65 is delivered by the drone 3 to the house 38
Model has been successfully processed
Writing MIP solution to 'solver_drone_solution_40_10.log'...
